\* row_knapsack_problem *\
Minimize
knapsack: 3 row_1 + 31 row_10 + 4 row_11 + 31 row_12 + 2 row_13 + 33 row_14
 + 32 row_16 + 32 row_17 + 34 row_18 + 32 row_19 + 3 row_20 + 4 row_21
 + 31 row_22 + 3 row_23 + 30 row_24 + 34 row_25 + 31 row_27 + 2 row_28
 + 33 row_29 + 33 row_3 + 34 row_30 + 3 row_31 + 31 row_32 + 32 row_34
 + 32 row_35 + 3 row_36 + 32 row_37 + 2 row_38 + 32 row_39 + 31 row_40
 + 33 row_41 + 32 row_42 + 31 row_44 + 32 row_47 + 31 row_6 + 4 row_9
Subject To
sensitivity: 31 row_1 + 3 row_10 + 30 row_11 + 3 row_12 + 32 row_13 + row_14
 + 2 row_16 + 2 row_17 + 2 row_19 + 31 row_20 + 30 row_21 + 3 row_22
 + 31 row_23 + 4 row_24 + 3 row_27 + 32 row_28 + row_29 + row_3 + 31 row_31
 + 3 row_32 + 2 row_34 + 2 row_35 + 31 row_36 + 2 row_37 + 32 row_38
 + 2 row_39 + 3 row_40 + row_41 + 2 row_42 + 3 row_44 + 2 row_47 + 3 row_6
 + 30 row_9 >= 39.1
Bounds
 row_1 <= 1
 row_10 <= 1
 row_11 <= 1
 row_12 <= 1
 row_13 <= 1
 row_14 <= 1
 row_16 <= 1
 row_17 <= 1
 row_18 <= 1
 row_19 <= 1
 row_20 <= 1
 row_21 <= 1
 row_22 <= 1
 row_23 <= 1
 row_24 <= 1
 row_25 <= 1
 row_27 <= 1
 row_28 <= 1
 row_29 <= 1
 row_3 <= 1
 row_30 <= 1
 row_31 <= 1
 row_32 <= 1
 row_34 <= 1
 row_35 <= 1
 row_36 <= 1
 row_37 <= 1
 row_38 <= 1
 row_39 <= 1
 row_40 <= 1
 row_41 <= 1
 row_42 <= 1
 row_44 <= 1
 row_47 <= 1
 row_6 <= 1
 row_9 <= 1
End
